364,-30
980,818
1051,526
1095,471
975,555
868,501
652,410
366,177
254,189
307,596
363,724
540,600
521,487
620,791
782,719
764,662
829,554
999,88
910,91
998,-30
681,-74
1081,202
1135,175
858,434
749,539
787,352
663,288
504,378
